problem_generation/data/GISP/train/er_n=64_m=1172_p=0.60_SET2_setparam=100.00_alpha=0.50_278.lp
maximize
OBJ:100x0 + 100x1 + 100x2 + 100x3 + 100x4 + 100x5 + 100x6 + 100x7 + 100x8 + 100x9 + 100x10 + 100x11 + 100x12 + 100x13 + 100x14 + 100x15 + 100x16 + 100x17 + 100x18 + 100x19 + 100x20 + 100x21 + 100x22 + 100x23 + 100x24 + 100x25 + 100x26 + 100x27 + 100x28 + 100x29 + 100x30 + 100x31 + 100x32 + 100x33 + 100x34 + 100x35 + 100x36 + 100x37 + 100x38 + 100x39 + 100x40 + 100x41 + 100x42 + 100x43 + 100x44 + 100x45 + 100x46 + 100x47 + 100x48 + 100x49 + 100x50 + 100x51 + 100x52 + 100x53 + 100x54 + 100x55 + 100x56 + 100x57 + 100x58 + 100x59 + 100x60 + 100x61 + 100x62 + 100x63 - y55_57 - y15_30 - y18_26 - y29_32 - y18_44 - y9_63 - y29_41 - y8_18 - y11_14 - y29_50 - y40_50 - y0_23 - y6_57 - y11_23 - y21_55 - y29_59 - y41_42 - y25_34 - y44_47 - y25_43 - y25_61 - y22_37 - y22_46 - y3_42 - y15_16 - y7_12 - y47_48 - y17_44 - y18_21 - y47_57 - y7_30 - y9_49 - y5_60 - y48_49 - y0_9 - y6_43 - y29_63 - y21_59 - y10_22 - y2_36 - y44_51 - y2_45 - y3_10 - y51_59 - y32_55 - y43_55 - y3_28 - y24_60 - y17_39 - y7_16 - y36_52 - y47_52 - y5_46 - y47_61 - y9_44 - y28_57 - y29_31 - y48_53 - y39_62 - y54_60 - y33_37 - y25_42 - y32_41 - y2_49 - y3_14 - y32_50 - y22_27 - y35_46 - y1_53 - y13_55 - y14_32 - y24_55 - y16_60 - y17_25 - y17_34 - y9_30 - y21_31 - y21_40 - y6_51 - y39_48 - y10_21 - y2_17 - y20_53 - y54_55 - y2_26 - y25_28 - y31_62 - y12_58 - y2_35 - y32_36 - y32_45 - y13_41 - y35_41 - y32_54 - y16_37 - y43_63 - y16_55 - y5_27 - y17_38 - y5_45 - y9_43 - y9_52 - y50_62 - y61_62 - y6_37 - y42_58 - y21_35 - y2_3 - y10_16 - y10_25 - y12_44 - y62_63 - y2_21 - y23_53 - y23_62 - y24_27 - y4_58 - y13_36 - y35_36 - y1_43 - y35_45 - y1_52 - y13_54 - y24_63 - y35_63 - y57_60 - y9_20 - y28_33 - y28_42 - y5_49 - y6_14 - y50_57 - y8_51 - y30_60 - y42_62 - y39_47 - y31_43 - y39_56 - y31_61 - y12_57 - y23_57 - y1_29 - y13_31 - y24_31 - y24_49 - y9_15 - y38_51 - y5_26 - y9_24 - y49_60 - y17_37 - y28_37 - y5_44 - y27_50 - y8_55 - y42_57 - y0_51 - y39_51 - y23_34 - y20_47 - y39_60 - y31_56 - y12_52 - y1_15 - y12_61 - y23_61 - y24_26 - y34_58 - y16_31 - y13_44 - y35_44 - y16_40 - y1_51 - y38_46 - y5_21 - y26_62 - y27_36 - y19_41 - y27_54 - y0_37 - y31_33 - y23_29 - y31_42 - y23_38 - y1_19 - y53_57 - y34_53 - y24_30 - y4_61 - y22_60 - y1_46 - y38_41 - y9_14 - y57_63 - y7_62 - y8_27 - y0_32 - y19_45 - y30_45 - y27_58 - y8_54 - y11_50 - y30_63 - y31_37 - y24_25 - y53_61 - y45_57 - y37_53 - y3_60 - y14_60 - y37_62 - y46_58 - y57_58 - y15_52 - y26_52 - y18_48 - y38_63 - y7_57 - y18_57 - y11_18 - y0_27 - y11_27 - y27_53 - y0_36 - y11_36 - y19_49 - y30_58 - y4_6 - y0_54 - y11_54 - y41_55 - y31_32 - y23_28 - y12_37 - y23_37 - y25_56 - y34_52 - y45_52 - y45_61 - y15_29 - y15_38 - y26_47 - y18_43 - y15_56 - y0_13 - y8_26 - y27_39 - y29_58 - y21_63 - y60_63 - y4_10 - y4_19 - y22_36 - y1_13 - y22_45 - y34_56 - y15_24 - y15_33 - y7_29 - y15_51 - y7_47 - y18_47 - y0_8 - y7_56 - y0_17 - y19_30 - y11_26 - y11_35 - y41_45 - y4_5 - y41_54 - y52_54 - y10_57 - y33_59 - y44_59 - y2_53 - y22_31 - y3_45 - y37_47 - y22_58 - y7_15 - y7_24 - y47_60 - y26_37 - y59_62 - y0_3 - y48_52 - y0_12 - y11_12 - y19_25 - y29_48 - y40_48 - y29_57 - y4_9 - y25_41 - y44_54 - y2_48 - y33_63 - y44_63 - y51_62 - y3_22 - y22_44 - y3_49 - y7_10 - y55_59 - y36_55 - y47_55 - y7_28 - y40_43 - y21_39 - y0_16 - y40_52 - y21_48 - y29_61 - y2_25 - y10_38 - y33_40 - y2_34 - y33_49 - y44_49 - y2_43 - y25_54 - y22_30 - y22_39 - y15_18 - y7_14 - y36_59 - y17_55 - y28_55 - y9_60 - y0_2 - y40_47 - y21_52 - y6_63 - y10_24 - y54_58 - y33_35 - y10_42 - y2_38 - y25_40 - y51_52 - y3_12 - y32_48 - y43_48 - y3_21 - y14_21 - y32_57 - y13_53 - y14_30 - y1_60 - y24_62 - y16_58 - y28_32 - y55_58 - y40_42 - y21_38 - y40_51 - y2_6 - y20_60 - y25_26 - y2_33 - y3_7 - y32_43 - y13_48 - y43_61 - y13_57 - y17_18 - y5_34 - y28_36 - y5_52 - y17_54 - y9_50 - y28_63 - y6_26 - y21_24 - y6_35 - y2_19 - y23_60 - y4_56 - y32_38 - y51_60 - y1_50 - y24_52 - y13_61 - y16_57 - y36_44 - y28_40 - y58_59 - y8_58 - y19_58 - y42_60 - y2_5 - y20_41 - y10_18 - y31_41 - y39_54 - y4_42 - y13_29 - y1_45 - y13_47 - y35_56 - y1_63 - y46_62 - y57_62 - y38_58 - y9_31 - y5_42 - y58_63 - y42_46 - y50_59 - y30_53 - y30_62 - y31_36 - y23_32 - y20_45 - y31_45 - y31_54 - y54_56 - y20_63 - y1_22 - y53_60 - y13_33 - y43_46 - y1_40 - y24_42 - y5_19 - y26_60 - y8_39 - y30_39 - y61_63 - y30_57 - y0_53 - y11_53 - y20_31 - y39_44 - y23_27 - y31_49 - y4_41 - y23_54 - y1_17 - y13_19 - y23_63 - y13_28 - y34_60 - y1_35 - y35_37 - y16_33 - y1_44 - y15_46 - y46_61 - y15_55 - y38_57 - y49_57 - y7_51 - y18_60 - y30_34 - y30_43 - y42_45 - y27_56 - y0_39 - y30_52 - y11_48 - y4_18 - y31_44 - y4_27 - y1_12 - y4_45 - y16_19 - y45_55 - y14_58 - y46_47 - y46_56 - y7_46 - y38_61 - y18_55 - y8_20 - y19_29 - y27_42 - y19_38 - y27_51 - y19_47 - y20_21 - y11_52 - y41_53 - y0_61 - y31_39 - y33_58 - y1_7 - y53_54 - y37_46 - y34_59 - y3_53 - y15_36 - y46_51 - y18_32 - y18_50 - y0_11 - y0_20 - y11_20 - y30_33 - y11_38 - y19_51 - y0_47 - y41_48 - y20_25 - y4_8 - y12_21 - y33_53 - y4_26 - y1_2 - y37_41 - y22_52 - y34_54 - y34_63 - y56_63 - y14_57 - y15_22 - y7_18 - y26_40 - y7_45 - y15_58 - y48_55 - y19_37 - y30_37 - y0_33 - y33_39 - y12_16 - y4_12 - y41_61 - y25_44 - y33_57 - y2_51 - y25_53 - y1_6 - y22_38 - y22_56 - y45_58 - y56_58 - y55_62 - y18_22 - y26_44 - y18_49 - y0_10 - y11_28 - y21_60 - y41_56 - y25_39 - y4_16 - y10_50 - y2_46 - y22_24 - y3_20 - y22_42 - y22_51
 Subject to
C1: x0+x2-y0_2 <=1 
C2: x0+x3-y0_3 <=1 
C3: x0+x6 <=1 
C4: x0+x7 <=1 
C5: x0+x8-y0_8 <=1 
C6: x0+x9-y0_9 <=1 
C7: x0+x10-y0_10 <=1 
C8: x0+x11-y0_11 <=1 
C9: x0+x12-y0_12 <=1 
C10: x0+x13-y0_13 <=1 
C11: x0+x14 <=1 
C12: x0+x16-y0_16 <=1 
C13: x0+x17-y0_17 <=1 
C14: x0+x18 <=1 
C15: x0+x20-y0_20 <=1 
C16: x0+x23-y0_23 <=1 
C17: x0+x24 <=1 
C18: x0+x26 <=1 
C19: x0+x27-y0_27 <=1 
C20: x0+x28 <=1 
C21: x0+x29 <=1 
C22: x0+x32-y0_32 <=1 
C23: x0+x33-y0_33 <=1 
C24: x0+x35 <=1 
C25: x0+x36-y0_36 <=1 
C26: x0+x37-y0_37 <=1 
C27: x0+x39-y0_39 <=1 
C28: x0+x41 <=1 
C29: x0+x43 <=1 
C30: x0+x44 <=1 
C31: x0+x46 <=1 
C32: x0+x47-y0_47 <=1 
C33: x0+x50 <=1 
C34: x0+x51-y0_51 <=1 
C35: x0+x53-y0_53 <=1 
C36: x0+x54-y0_54 <=1 
C37: x0+x55 <=1 
C38: x0+x56 <=1 
C39: x0+x58 <=1 
C40: x0+x59 <=1 
C41: x0+x60 <=1 
C42: x0+x61-y0_61 <=1 
C43: x1+x2-y1_2 <=1 
C44: x1+x3 <=1 
C45: x1+x6-y1_6 <=1 
C46: x1+x7-y1_7 <=1 
C47: x1+x8 <=1 
C48: x1+x9 <=1 
C49: x1+x12-y1_12 <=1 
C50: x1+x13-y1_13 <=1 
C51: x1+x14 <=1 
C52: x1+x15-y1_15 <=1 
C53: x1+x17-y1_17 <=1 
C54: x1+x19-y1_19 <=1 
C55: x1+x20 <=1 
C56: x1+x21 <=1 
C57: x1+x22-y1_22 <=1 
C58: x1+x23 <=1 
C59: x1+x29-y1_29 <=1 
C60: x1+x30 <=1 
C61: x1+x31 <=1 
C62: x1+x34 <=1 
C63: x1+x35-y1_35 <=1 
C64: x1+x40-y1_40 <=1 
C65: x1+x41 <=1 
C66: x1+x42 <=1 
C67: x1+x43-y1_43 <=1 
C68: x1+x44-y1_44 <=1 
C69: x1+x45-y1_45 <=1 
C70: x1+x46-y1_46 <=1 
C71: x1+x47 <=1 
C72: x1+x48 <=1 
C73: x1+x50-y1_50 <=1 
C74: x1+x51-y1_51 <=1 
C75: x1+x52-y1_52 <=1 
C76: x1+x53-y1_53 <=1 
C77: x1+x59 <=1 
C78: x1+x60-y1_60 <=1 
C79: x1+x62 <=1 
C80: x1+x63-y1_63 <=1 
C81: x2+x3-y2_3 <=1 
C82: x2+x5-y2_5 <=1 
C83: x2+x6-y2_6 <=1 
C84: x2+x7 <=1 
C85: x2+x9 <=1 
C86: x2+x11 <=1 
C87: x2+x12 <=1 
C88: x2+x14 <=1 
C89: x2+x16 <=1 
C90: x2+x17-y2_17 <=1 
C91: x2+x19-y2_19 <=1 
C92: x2+x21-y2_21 <=1 
C93: x2+x22 <=1 
C94: x2+x23 <=1 
C95: x2+x25-y2_25 <=1 
C96: x2+x26-y2_26 <=1 
C97: x2+x27 <=1 
C98: x2+x28 <=1 
C99: x2+x29 <=1 
C100: x2+x31 <=1 
C101: x2+x33-y2_33 <=1 
C102: x2+x34-y2_34 <=1 
C103: x2+x35-y2_35 <=1 
C104: x2+x36-y2_36 <=1 
C105: x2+x38-y2_38 <=1 
C106: x2+x39 <=1 
C107: x2+x43-y2_43 <=1 
C108: x2+x45-y2_45 <=1 
C109: x2+x46-y2_46 <=1 
C110: x2+x47 <=1 
C111: x2+x48-y2_48 <=1 
C112: x2+x49-y2_49 <=1 
C113: x2+x51-y2_51 <=1 
C114: x2+x53-y2_53 <=1 
C115: x2+x54 <=1 
C116: x2+x55 <=1 
C117: x2+x57 <=1 
C118: x2+x58 <=1 
C119: x3+x6 <=1 
C120: x3+x7-y3_7 <=1 
C121: x3+x10-y3_10 <=1 
C122: x3+x11 <=1 
C123: x3+x12-y3_12 <=1 
C124: x3+x14-y3_14 <=1 
C125: x3+x18 <=1 
C126: x3+x19 <=1 
C127: x3+x20-y3_20 <=1 
C128: x3+x21-y3_21 <=1 
C129: x3+x22-y3_22 <=1 
C130: x3+x24 <=1 
C131: x3+x28-y3_28 <=1 
C132: x3+x34 <=1 
C133: x3+x37 <=1 
C134: x3+x40 <=1 
C135: x3+x41 <=1 
C136: x3+x42-y3_42 <=1 
C137: x3+x44 <=1 
C138: x3+x45-y3_45 <=1 
C139: x3+x49-y3_49 <=1 
C140: x3+x52 <=1 
C141: x3+x53-y3_53 <=1 
C142: x3+x56 <=1 
C143: x3+x58 <=1 
C144: x3+x60-y3_60 <=1 
C145: x3+x62 <=1 
C146: x3+x63 <=1 
C147: x4+x5-y4_5 <=1 
C148: x4+x6-y4_6 <=1 
C149: x4+x8-y4_8 <=1 
C150: x4+x9-y4_9 <=1 
C151: x4+x10-y4_10 <=1 
C152: x4+x11 <=1 
C153: x4+x12-y4_12 <=1 
C154: x4+x13 <=1 
C155: x4+x14 <=1 
C156: x4+x16-y4_16 <=1 
C157: x4+x18-y4_18 <=1 
C158: x4+x19-y4_19 <=1 
C159: x4+x22 <=1 
C160: x4+x26-y4_26 <=1 
C161: x4+x27-y4_27 <=1 
C162: x4+x28 <=1 
C163: x4+x29 <=1 
C164: x4+x33 <=1 
C165: x4+x34 <=1 
C166: x4+x36 <=1 
C167: x4+x41-y4_41 <=1 
C168: x4+x42-y4_42 <=1 
C169: x4+x44 <=1 
C170: x4+x45-y4_45 <=1 
C171: x4+x46 <=1 
C172: x4+x47 <=1 
C173: x4+x49 <=1 
C174: x4+x51 <=1 
C175: x4+x52 <=1 
C176: x4+x54 <=1 
C177: x4+x56-y4_56 <=1 
C178: x4+x57 <=1 
C179: x4+x58-y4_58 <=1 
C180: x4+x61-y4_61 <=1 
C181: x4+x62 <=1 
C182: x5+x7 <=1 
C183: x5+x8 <=1 
C184: x5+x9 <=1 
C185: x5+x13 <=1 
C186: x5+x16 <=1 
C187: x5+x18 <=1 
C188: x5+x19-y5_19 <=1 
C189: x5+x21-y5_21 <=1 
C190: x5+x23 <=1 
C191: x5+x24 <=1 
C192: x5+x25 <=1 
C193: x5+x26-y5_26 <=1 
C194: x5+x27-y5_27 <=1 
C195: x5+x31 <=1 
C196: x5+x34-y5_34 <=1 
C197: x5+x36 <=1 
C198: x5+x37 <=1 
C199: x5+x39 <=1 
C200: x5+x42-y5_42 <=1 
C201: x5+x44-y5_44 <=1 
C202: x5+x45-y5_45 <=1 
C203: x5+x46-y5_46 <=1 
C204: x5+x49-y5_49 <=1 
C205: x5+x51 <=1 
C206: x5+x52-y5_52 <=1 
C207: x5+x54 <=1 
C208: x5+x55 <=1 
C209: x5+x56 <=1 
C210: x5+x60-y5_60 <=1 
C211: x5+x61 <=1 
C212: x5+x62 <=1 
C213: x5+x63 <=1 
C214: x6+x12 <=1 
C215: x6+x13 <=1 
C216: x6+x14-y6_14 <=1 
C217: x6+x15 <=1 
C218: x6+x16 <=1 
C219: x6+x21 <=1 
C220: x6+x22 <=1 
C221: x6+x24 <=1 
C222: x6+x26-y6_26 <=1 
C223: x6+x28 <=1 
C224: x6+x35-y6_35 <=1 
C225: x6+x36 <=1 
C226: x6+x37-y6_37 <=1 
C227: x6+x43-y6_43 <=1 
C228: x6+x45 <=1 
C229: x6+x46 <=1 
C230: x6+x49 <=1 
C231: x6+x51-y6_51 <=1 
C232: x6+x53 <=1 
C233: x6+x56 <=1 
C234: x6+x57-y6_57 <=1 
C235: x6+x59 <=1 
C236: x6+x60 <=1 
C237: x6+x61 <=1 
C238: x6+x63-y6_63 <=1 
C239: x7+x8 <=1 
C240: x7+x10-y7_10 <=1 
C241: x7+x11 <=1 
C242: x7+x12-y7_12 <=1 
C243: x7+x13 <=1 
C244: x7+x14-y7_14 <=1 
C245: x7+x15-y7_15 <=1 
C246: x7+x16-y7_16 <=1 
C247: x7+x18-y7_18 <=1 
C248: x7+x20 <=1 
C249: x7+x24-y7_24 <=1 
C250: x7+x28-y7_28 <=1 
C251: x7+x29-y7_29 <=1 
C252: x7+x30-y7_30 <=1 
C253: x7+x45-y7_45 <=1 
C254: x7+x46-y7_46 <=1 
C255: x7+x47-y7_47 <=1 
C256: x7+x49 <=1 
C257: x7+x51-y7_51 <=1 
C258: x7+x55 <=1 
C259: x7+x56-y7_56 <=1 
C260: x7+x57-y7_57 <=1 
C261: x7+x60 <=1 
C262: x7+x61 <=1 
C263: x7+x62-y7_62 <=1 
C264: x7+x63 <=1 
C265: x8+x11 <=1 
C266: x8+x13 <=1 
C267: x8+x15 <=1 
C268: x8+x18-y8_18 <=1 
C269: x8+x19 <=1 
C270: x8+x20-y8_20 <=1 
C271: x8+x22 <=1 
C272: x8+x23 <=1 
C273: x8+x25 <=1 
C274: x8+x26-y8_26 <=1 
C275: x8+x27-y8_27 <=1 
C276: x8+x33 <=1 
C277: x8+x39-y8_39 <=1 
C278: x8+x40 <=1 
C279: x8+x42 <=1 
C280: x8+x44 <=1 
C281: x8+x45 <=1 
C282: x8+x48 <=1 
C283: x8+x51-y8_51 <=1 
C284: x8+x52 <=1 
C285: x8+x54-y8_54 <=1 
C286: x8+x55-y8_55 <=1 
C287: x8+x56 <=1 
C288: x8+x58-y8_58 <=1 
C289: x8+x62 <=1 
C290: x9+x11 <=1 
C291: x9+x13 <=1 
C292: x9+x14-y9_14 <=1 
C293: x9+x15-y9_15 <=1 
C294: x9+x19 <=1 
C295: x9+x20-y9_20 <=1 
C296: x9+x23 <=1 
C297: x9+x24-y9_24 <=1 
C298: x9+x30-y9_30 <=1 
C299: x9+x31-y9_31 <=1 
C300: x9+x33 <=1 
C301: x9+x37 <=1 
C302: x9+x43-y9_43 <=1 
C303: x9+x44-y9_44 <=1 
C304: x9+x47 <=1 
C305: x9+x48 <=1 
C306: x9+x49-y9_49 <=1 
C307: x9+x50-y9_50 <=1 
C308: x9+x52-y9_52 <=1 
C309: x9+x53 <=1 
C310: x9+x55 <=1 
C311: x9+x58 <=1 
C312: x9+x60-y9_60 <=1 
C313: x9+x61 <=1 
C314: x9+x62 <=1 
C315: x9+x63-y9_63 <=1 
C316: x10+x11 <=1 
C317: x10+x13 <=1 
C318: x10+x14 <=1 
C319: x10+x15 <=1 
C320: x10+x16-y10_16 <=1 
C321: x10+x17 <=1 
C322: x10+x18-y10_18 <=1 
C323: x10+x21-y10_21 <=1 
C324: x10+x22-y10_22 <=1 
C325: x10+x24-y10_24 <=1 
C326: x10+x25-y10_25 <=1 
C327: x10+x26 <=1 
C328: x10+x28 <=1 
C329: x10+x31 <=1 
C330: x10+x38-y10_38 <=1 
C331: x10+x40 <=1 
C332: x10+x41 <=1 
C333: x10+x42-y10_42 <=1 
C334: x10+x48 <=1 
C335: x10+x49 <=1 
C336: x10+x50-y10_50 <=1 
C337: x10+x51 <=1 
C338: x10+x53 <=1 
C339: x10+x54 <=1 
C340: x10+x56 <=1 
C341: x10+x57-y10_57 <=1 
C342: x10+x58 <=1 
C343: x10+x59 <=1 
C344: x11+x12-y11_12 <=1 
C345: x11+x14-y11_14 <=1 
C346: x11+x15 <=1 
C347: x11+x17 <=1 
C348: x11+x18-y11_18 <=1 
C349: x11+x19 <=1 
C350: x11+x20-y11_20 <=1 
C351: x11+x23-y11_23 <=1 
C352: x11+x24 <=1 
C353: x11+x26-y11_26 <=1 
C354: x11+x27-y11_27 <=1 
C355: x11+x28-y11_28 <=1 
C356: x11+x29 <=1 
C357: x11+x33 <=1 
C358: x11+x34 <=1 
C359: x11+x35-y11_35 <=1 
C360: x11+x36-y11_36 <=1 
C361: x11+x38-y11_38 <=1 
C362: x11+x39 <=1 
C363: x11+x40 <=1 
C364: x11+x41 <=1 
C365: x11+x43 <=1 
C366: x11+x44 <=1 
C367: x11+x46 <=1 
C368: x11+x48-y11_48 <=1 
C369: x11+x50-y11_50 <=1 
C370: x11+x52-y11_52 <=1 
C371: x11+x53-y11_53 <=1 
C372: x11+x54-y11_54 <=1 
C373: x11+x55 <=1 
C374: x11+x57 <=1 
C375: x11+x59 <=1 
C376: x11+x60 <=1 
C377: x11+x61 <=1 
C378: x12+x14 <=1 
C379: x12+x15 <=1 
C380: x12+x16-y12_16 <=1 
C381: x12+x18 <=1 
C382: x12+x19 <=1 
C383: x12+x20 <=1 
C384: x12+x21-y12_21 <=1 
C385: x12+x22 <=1 
C386: x12+x23 <=1 
C387: x12+x24 <=1 
C388: x12+x25 <=1 
C389: x12+x28 <=1 
C390: x12+x29 <=1 
C391: x12+x37-y12_37 <=1 
C392: x12+x42 <=1 
C393: x12+x44-y12_44 <=1 
C394: x12+x45 <=1 
C395: x12+x48 <=1 
C396: x12+x49 <=1 
C397: x12+x50 <=1 
C398: x12+x51 <=1 
C399: x12+x52-y12_52 <=1 
C400: x12+x55 <=1 
C401: x12+x57-y12_57 <=1 
C402: x12+x58-y12_58 <=1 
C403: x12+x59 <=1 
C404: x12+x60 <=1 
C405: x12+x61-y12_61 <=1 
C406: x12+x62 <=1 
C407: x13+x17 <=1 
C408: x13+x18 <=1 
C409: x13+x19-y13_19 <=1 
C410: x13+x21 <=1 
C411: x13+x22 <=1 
C412: x13+x28-y13_28 <=1 
C413: x13+x29-y13_29 <=1 
C414: x13+x30 <=1 
C415: x13+x31-y13_31 <=1 
C416: x13+x33-y13_33 <=1 
C417: x13+x36-y13_36 <=1 
C418: x13+x39 <=1 
C419: x13+x41-y13_41 <=1 
C420: x13+x44-y13_44 <=1 
C421: x13+x46 <=1 
C422: x13+x47-y13_47 <=1 
C423: x13+x48-y13_48 <=1 
C424: x13+x53-y13_53 <=1 
C425: x13+x54-y13_54 <=1 
C426: x13+x55-y13_55 <=1 
C427: x13+x56 <=1 
C428: x13+x57-y13_57 <=1 
C429: x13+x59 <=1 
C430: x13+x61-y13_61 <=1 
C431: x13+x63 <=1 
C432: x14+x15 <=1 
C433: x14+x16 <=1 
C434: x14+x17 <=1 
C435: x14+x19 <=1 
C436: x14+x21-y14_21 <=1 
C437: x14+x25 <=1 
C438: x14+x27 <=1 
C439: x14+x29 <=1 
C440: x14+x30-y14_30 <=1 
C441: x14+x31 <=1 
C442: x14+x32-y14_32 <=1 
C443: x14+x35 <=1 
C444: x14+x36 <=1 
C445: x14+x37 <=1 
C446: x14+x40 <=1 
C447: x14+x43 <=1 
C448: x14+x44 <=1 
C449: x14+x45 <=1 
C450: x14+x48 <=1 
C451: x14+x49 <=1 
C452: x14+x50 <=1 
C453: x14+x51 <=1 
C454: x14+x52 <=1 
C455: x14+x55 <=1 
C456: x14+x56 <=1 
C457: x14+x57-y14_57 <=1 
C458: x14+x58-y14_58 <=1 
C459: x14+x60-y14_60 <=1 
C460: x14+x61 <=1 
C461: x15+x16-y15_16 <=1 
C462: x15+x17 <=1 
C463: x15+x18-y15_18 <=1 
C464: x15+x19 <=1 
C465: x15+x20 <=1 
C466: x15+x21 <=1 
C467: x15+x22-y15_22 <=1 
C468: x15+x23 <=1 
C469: x15+x24-y15_24 <=1 
C470: x15+x25 <=1 
C471: x15+x28 <=1 
C472: x15+x29-y15_29 <=1 
C473: x15+x30-y15_30 <=1 
C474: x15+x32 <=1 
C475: x15+x33-y15_33 <=1 
C476: x15+x34 <=1 
C477: x15+x35 <=1 
C478: x15+x36-y15_36 <=1 
C479: x15+x37 <=1 
C480: x15+x38-y15_38 <=1 
C481: x15+x40 <=1 
C482: x15+x42 <=1 
C483: x15+x43 <=1 
C484: x15+x44 <=1 
C485: x15+x45 <=1 
C486: x15+x46-y15_46 <=1 
C487: x15+x48 <=1 
C488: x15+x50 <=1 
C489: x15+x51-y15_51 <=1 
C490: x15+x52-y15_52 <=1 
C491: x15+x54 <=1 
C492: x15+x55-y15_55 <=1 
C493: x15+x56-y15_56 <=1 
C494: x15+x58-y15_58 <=1 
C495: x15+x59 <=1 
C496: x15+x61 <=1 
C497: x15+x62 <=1 
C498: x16+x17 <=1 
C499: x16+x18 <=1 
C500: x16+x19-y16_19 <=1 
C501: x16+x23 <=1 
C502: x16+x25 <=1 
C503: x16+x27 <=1 
C504: x16+x28 <=1 
C505: x16+x29 <=1 
C506: x16+x31-y16_31 <=1 
C507: x16+x33-y16_33 <=1 
C508: x16+x36 <=1 
C509: x16+x37-y16_37 <=1 
C510: x16+x38 <=1 
C511: x16+x39 <=1 
C512: x16+x40-y16_40 <=1 
C513: x16+x48 <=1 
C514: x16+x49 <=1 
C515: x16+x50 <=1 
C516: x16+x52 <=1 
C517: x16+x53 <=1 
C518: x16+x54 <=1 
C519: x16+x55-y16_55 <=1 
C520: x16+x56 <=1 
C521: x16+x57-y16_57 <=1 
C522: x16+x58-y16_58 <=1 
C523: x16+x60-y16_60 <=1 
C524: x16+x61 <=1 
C525: x17+x18-y17_18 <=1 
C526: x17+x19 <=1 
C527: x17+x20 <=1 
C528: x17+x22 <=1 
C529: x17+x25-y17_25 <=1 
C530: x17+x29 <=1 
C531: x17+x30 <=1 
C532: x17+x34-y17_34 <=1 
C533: x17+x36 <=1 
C534: x17+x37-y17_37 <=1 
C535: x17+x38-y17_38 <=1 
C536: x17+x39-y17_39 <=1 
C537: x17+x41 <=1 
C538: x17+x42 <=1 
C539: x17+x43 <=1 
C540: x17+x44-y17_44 <=1 
C541: x17+x45 <=1 
C542: x17+x47 <=1 
C543: x17+x48 <=1 
C544: x17+x54-y17_54 <=1 
C545: x17+x55-y17_55 <=1 
C546: x17+x57 <=1 
C547: x17+x59 <=1 
C548: x17+x60 <=1 
C549: x17+x62 <=1 
C550: x17+x63 <=1 
C551: x18+x21-y18_21 <=1 
C552: x18+x22-y18_22 <=1 
C553: x18+x24 <=1 
C554: x18+x26-y18_26 <=1 
C555: x18+x27 <=1 
C556: x18+x29 <=1 
C557: x18+x30 <=1 
C558: x18+x32-y18_32 <=1 
C559: x18+x35 <=1 
C560: x18+x36 <=1 
C561: x18+x38 <=1 
C562: x18+x39 <=1 
C563: x18+x40 <=1 
C564: x18+x43-y18_43 <=1 
C565: x18+x44-y18_44 <=1 
C566: x18+x45 <=1 
C567: x18+x46 <=1 
C568: x18+x47-y18_47 <=1 
C569: x18+x48-y18_48 <=1 
C570: x18+x49-y18_49 <=1 
C571: x18+x50-y18_50 <=1 
C572: x18+x51 <=1 
C573: x18+x55-y18_55 <=1 
C574: x18+x57-y18_57 <=1 
C575: x18+x59 <=1 
C576: x18+x60-y18_60 <=1 
C577: x18+x63 <=1 
C578: x19+x20 <=1 
C579: x19+x21 <=1 
C580: x19+x22 <=1 
C581: x19+x25-y19_25 <=1 
C582: x19+x29-y19_29 <=1 
C583: x19+x30-y19_30 <=1 
C584: x19+x37-y19_37 <=1 
C585: x19+x38-y19_38 <=1 
C586: x19+x39 <=1 
C587: x19+x41-y19_41 <=1 
C588: x19+x44 <=1 
C589: x19+x45-y19_45 <=1 
C590: x19+x47-y19_47 <=1 
C591: x19+x49-y19_49 <=1 
C592: x19+x51-y19_51 <=1 
C593: x19+x52 <=1 
C594: x19+x53 <=1 
C595: x19+x55 <=1 
C596: x19+x58-y19_58 <=1 
C597: x19+x62 <=1 
C598: x20+x21-y20_21 <=1 
C599: x20+x23 <=1 
C600: x20+x25-y20_25 <=1 
C601: x20+x26 <=1 
C602: x20+x27 <=1 
C603: x20+x28 <=1 
C604: x20+x29 <=1 
C605: x20+x31-y20_31 <=1 
C606: x20+x32 <=1 
C607: x20+x33 <=1 
C608: x20+x35 <=1 
C609: x20+x38 <=1 
C610: x20+x39 <=1 
C611: x20+x40 <=1 
C612: x20+x41-y20_41 <=1 
C613: x20+x42 <=1 
C614: x20+x44 <=1 
C615: x20+x45-y20_45 <=1 
C616: x20+x47-y20_47 <=1 
C617: x20+x48 <=1 
C618: x20+x49 <=1 
C619: x20+x50 <=1 
C620: x20+x51 <=1 
C621: x20+x52 <=1 
C622: x20+x53-y20_53 <=1 
C623: x20+x60-y20_60 <=1 
C624: x20+x63-y20_63 <=1 
C625: x21+x24-y21_24 <=1 
C626: x21+x25 <=1 
C627: x21+x31-y21_31 <=1 
C628: x21+x33 <=1 
C629: x21+x34 <=1 
C630: x21+x35-y21_35 <=1 
C631: x21+x38-y21_38 <=1 
C632: x21+x39-y21_39 <=1 
C633: x21+x40-y21_40 <=1 
C634: x21+x41 <=1 
C635: x21+x44 <=1 
C636: x21+x45 <=1 
C637: x21+x46 <=1 
C638: x21+x48-y21_48 <=1 
C639: x21+x49 <=1 
C640: x21+x51 <=1 
C641: x21+x52-y21_52 <=1 
C642: x21+x54 <=1 
C643: x21+x55-y21_55 <=1 
C644: x21+x57 <=1 
C645: x21+x59-y21_59 <=1 
C646: x21+x60-y21_60 <=1 
C647: x21+x61 <=1 
C648: x21+x62 <=1 
C649: x21+x63-y21_63 <=1 
C650: x22+x24-y22_24 <=1 
C651: x22+x26 <=1 
C652: x22+x27-y22_27 <=1 
C653: x22+x28 <=1 
C654: x22+x30-y22_30 <=1 
C655: x22+x31-y22_31 <=1 
C656: x22+x32 <=1 
C657: x22+x33 <=1 
C658: x22+x34 <=1 
C659: x22+x36-y22_36 <=1 
C660: x22+x37-y22_37 <=1 
C661: x22+x38-y22_38 <=1 
C662: x22+x39-y22_39 <=1 
C663: x22+x40 <=1 
C664: x22+x42-y22_42 <=1 
C665: x22+x44-y22_44 <=1 
C666: x22+x45-y22_45 <=1 
C667: x22+x46-y22_46 <=1 
C668: x22+x47 <=1 
C669: x22+x51-y22_51 <=1 
C670: x22+x52-y22_52 <=1 
C671: x22+x55 <=1 
C672: x22+x56-y22_56 <=1 
C673: x22+x57 <=1 
C674: x22+x58-y22_58 <=1 
C675: x22+x59 <=1 
C676: x22+x60-y22_60 <=1 
C677: x22+x61 <=1 
C678: x23+x24 <=1 
C679: x23+x27-y23_27 <=1 
C680: x23+x28-y23_28 <=1 
C681: x23+x29-y23_29 <=1 
C682: x23+x31 <=1 
C683: x23+x32-y23_32 <=1 
C684: x23+x33 <=1 
C685: x23+x34-y23_34 <=1 
C686: x23+x37-y23_37 <=1 
C687: x23+x38-y23_38 <=1 
C688: x23+x39 <=1 
C689: x23+x40 <=1 
C690: x23+x42 <=1 
C691: x23+x44 <=1 
C692: x23+x53-y23_53 <=1 
C693: x23+x54-y23_54 <=1 
C694: x23+x55 <=1 
C695: x23+x57-y23_57 <=1 
C696: x23+x60-y23_60 <=1 
C697: x23+x61-y23_61 <=1 
C698: x23+x62-y23_62 <=1 
C699: x23+x63-y23_63 <=1 
C700: x24+x25-y24_25 <=1 
C701: x24+x26-y24_26 <=1 
C702: x24+x27-y24_27 <=1 
C703: x24+x28 <=1 
C704: x24+x29 <=1 
C705: x24+x30-y24_30 <=1 
C706: x24+x31-y24_31 <=1 
C707: x24+x34 <=1 
C708: x24+x35 <=1 
C709: x24+x36 <=1 
C710: x24+x37 <=1 
C711: x24+x38 <=1 
C712: x24+x39 <=1 
C713: x24+x41 <=1 
C714: x24+x42-y24_42 <=1 
C715: x24+x43 <=1 
C716: x24+x44 <=1 
C717: x24+x45 <=1 
C718: x24+x47 <=1 
C719: x24+x49-y24_49 <=1 
C720: x24+x51 <=1 
C721: x24+x52-y24_52 <=1 
C722: x24+x55-y24_55 <=1 
C723: x24+x57 <=1 
C724: x24+x58 <=1 
C725: x24+x60-y24_60 <=1 
C726: x24+x62-y24_62 <=1 
C727: x24+x63-y24_63 <=1 
C728: x25+x26-y25_26 <=1 
C729: x25+x28-y25_28 <=1 
C730: x25+x30 <=1 
C731: x25+x33 <=1 
C732: x25+x34-y25_34 <=1 
C733: x25+x35 <=1 
C734: x25+x39-y25_39 <=1 
C735: x25+x40-y25_40 <=1 
C736: x25+x41-y25_41 <=1 
C737: x25+x42-y25_42 <=1 
C738: x25+x43-y25_43 <=1 
C739: x25+x44-y25_44 <=1 
C740: x25+x45 <=1 
C741: x25+x47 <=1 
C742: x25+x48 <=1 
C743: x25+x50 <=1 
C744: x25+x53-y25_53 <=1 
C745: x25+x54-y25_54 <=1 
C746: x25+x56-y25_56 <=1 
C747: x25+x57 <=1 
C748: x25+x59 <=1 
C749: x25+x61-y25_61 <=1 
C750: x26+x30 <=1 
C751: x26+x31 <=1 
C752: x26+x32 <=1 
C753: x26+x34 <=1 
C754: x26+x36 <=1 
C755: x26+x37-y26_37 <=1 
C756: x26+x40-y26_40 <=1 
C757: x26+x42 <=1 
C758: x26+x44-y26_44 <=1 
C759: x26+x45 <=1 
C760: x26+x47-y26_47 <=1 
C761: x26+x48 <=1 
C762: x26+x50 <=1 
C763: x26+x52-y26_52 <=1 
C764: x26+x56 <=1 
C765: x26+x59 <=1 
C766: x26+x60-y26_60 <=1 
C767: x26+x61 <=1 
C768: x26+x62-y26_62 <=1 
C769: x26+x63 <=1 
C770: x27+x32 <=1 
C771: x27+x36-y27_36 <=1 
C772: x27+x37 <=1 
C773: x27+x39-y27_39 <=1 
C774: x27+x40 <=1 
C775: x27+x42-y27_42 <=1 
C776: x27+x45 <=1 
C777: x27+x46 <=1 
C778: x27+x48 <=1 
C779: x27+x49 <=1 
C780: x27+x50-y27_50 <=1 
C781: x27+x51-y27_51 <=1 
C782: x27+x53-y27_53 <=1 
C783: x27+x54-y27_54 <=1 
C784: x27+x56-y27_56 <=1 
C785: x27+x57 <=1 
C786: x27+x58-y27_58 <=1 
C787: x27+x59 <=1 
C788: x28+x30 <=1 
C789: x28+x31 <=1 
C790: x28+x32-y28_32 <=1 
C791: x28+x33-y28_33 <=1 
C792: x28+x36-y28_36 <=1 
C793: x28+x37-y28_37 <=1 
C794: x28+x38 <=1 
C795: x28+x40-y28_40 <=1 
C796: x28+x41 <=1 
C797: x28+x42-y28_42 <=1 
C798: x28+x43 <=1 
C799: x28+x45 <=1 
C800: x28+x46 <=1 
C801: x28+x48 <=1 
C802: x28+x50 <=1 
C803: x28+x53 <=1 
C804: x28+x54 <=1 
C805: x28+x55-y28_55 <=1 
C806: x28+x56 <=1 
C807: x28+x57-y28_57 <=1 
C808: x28+x58 <=1 
C809: x28+x59 <=1 
C810: x28+x62 <=1 
C811: x28+x63-y28_63 <=1 
C812: x29+x31-y29_31 <=1 
C813: x29+x32-y29_32 <=1 
C814: x29+x36 <=1 
C815: x29+x37 <=1 
C816: x29+x41-y29_41 <=1 
C817: x29+x43 <=1 
C818: x29+x44 <=1 
C819: x29+x46 <=1 
C820: x29+x48-y29_48 <=1 
C821: x29+x50-y29_50 <=1 
C822: x29+x53 <=1 
C823: x29+x55 <=1 
C824: x29+x57-y29_57 <=1 
C825: x29+x58-y29_58 <=1 
C826: x29+x59-y29_59 <=1 
C827: x29+x61-y29_61 <=1 
C828: x29+x63-y29_63 <=1 
C829: x30+x31 <=1 
C830: x30+x32 <=1 
C831: x30+x33-y30_33 <=1 
C832: x30+x34-y30_34 <=1 
C833: x30+x37-y30_37 <=1 
C834: x30+x39-y30_39 <=1 
C835: x30+x40 <=1 
C836: x30+x43-y30_43 <=1 
C837: x30+x45-y30_45 <=1 
C838: x30+x47 <=1 
C839: x30+x49 <=1 
C840: x30+x52-y30_52 <=1 
C841: x30+x53-y30_53 <=1 
C842: x30+x57-y30_57 <=1 
C843: x30+x58-y30_58 <=1 
C844: x30+x60-y30_60 <=1 
C845: x30+x61 <=1 
C846: x30+x62-y30_62 <=1 
C847: x30+x63-y30_63 <=1 
C848: x31+x32-y31_32 <=1 
C849: x31+x33-y31_33 <=1 
C850: x31+x34 <=1 
C851: x31+x35 <=1 
C852: x31+x36-y31_36 <=1 
C853: x31+x37-y31_37 <=1 
C854: x31+x39-y31_39 <=1 
C855: x31+x40 <=1 
C856: x31+x41-y31_41 <=1 
C857: x31+x42-y31_42 <=1 
C858: x31+x43-y31_43 <=1 
C859: x31+x44-y31_44 <=1 
C860: x31+x45-y31_45 <=1 
C861: x31+x48 <=1 
C862: x31+x49-y31_49 <=1 
C863: x31+x53 <=1 
C864: x31+x54-y31_54 <=1 
C865: x31+x55 <=1 
C866: x31+x56-y31_56 <=1 
C867: x31+x61-y31_61 <=1 
C868: x31+x62-y31_62 <=1 
C869: x32+x33 <=1 
C870: x32+x34 <=1 
C871: x32+x35 <=1 
C872: x32+x36-y32_36 <=1 
C873: x32+x37 <=1 
C874: x32+x38-y32_38 <=1 
C875: x32+x40 <=1 
C876: x32+x41-y32_41 <=1 
C877: x32+x42 <=1 
C878: x32+x43-y32_43 <=1 
C879: x32+x45-y32_45 <=1 
C880: x32+x46 <=1 
C881: x32+x47 <=1 
C882: x32+x48-y32_48 <=1 
C883: x32+x50-y32_50 <=1 
C884: x32+x52 <=1 
C885: x32+x54-y32_54 <=1 
C886: x32+x55-y32_55 <=1 
C887: x32+x56 <=1 
C888: x32+x57-y32_57 <=1 
C889: x32+x58 <=1 
C890: x32+x61 <=1 
C891: x32+x62 <=1 
C892: x32+x63 <=1 
C893: x33+x34 <=1 
C894: x33+x35-y33_35 <=1 
C895: x33+x36 <=1 
C896: x33+x37-y33_37 <=1 
C897: x33+x38 <=1 
C898: x33+x39-y33_39 <=1 
C899: x33+x40-y33_40 <=1 
C900: x33+x45 <=1 
C901: x33+x46 <=1 
C902: x33+x49-y33_49 <=1 
C903: x33+x50 <=1 
C904: x33+x53-y33_53 <=1 
C905: x33+x55 <=1 
C906: x33+x56 <=1 
C907: x33+x57-y33_57 <=1 
C908: x33+x58-y33_58 <=1 
C909: x33+x59-y33_59 <=1 
C910: x33+x62 <=1 
C911: x33+x63-y33_63 <=1 
C912: x34+x36 <=1 
C913: x34+x37 <=1 
C914: x34+x41 <=1 
C915: x34+x42 <=1 
C916: x34+x43 <=1 
C917: x34+x44 <=1 
C918: x34+x51 <=1 
C919: x34+x52-y34_52 <=1 
C920: x34+x53-y34_53 <=1 
C921: x34+x54-y34_54 <=1 
C922: x34+x55 <=1 
C923: x34+x56-y34_56 <=1 
C924: x34+x58-y34_58 <=1 
C925: x34+x59-y34_59 <=1 
C926: x34+x60-y34_60 <=1 
C927: x34+x63-y34_63 <=1 
C928: x35+x36-y35_36 <=1 
C929: x35+x37-y35_37 <=1 
C930: x35+x38 <=1 
C931: x35+x39 <=1 
C932: x35+x41-y35_41 <=1 
C933: x35+x42 <=1 
C934: x35+x43 <=1 
C935: x35+x44-y35_44 <=1 
C936: x35+x45-y35_45 <=1 
C937: x35+x46-y35_46 <=1 
C938: x35+x50 <=1 
C939: x35+x56-y35_56 <=1 
C940: x35+x57 <=1 
C941: x35+x60 <=1 
C942: x35+x63-y35_63 <=1 
C943: x36+x38 <=1 
C944: x36+x41 <=1 
C945: x36+x42 <=1 
C946: x36+x44-y36_44 <=1 
C947: x36+x45 <=1 
C948: x36+x46 <=1 
C949: x36+x48 <=1 
C950: x36+x50 <=1 
C951: x36+x52-y36_52 <=1 
C952: x36+x53 <=1 
C953: x36+x55-y36_55 <=1 
C954: x36+x56 <=1 
C955: x36+x59-y36_59 <=1 
C956: x37+x39 <=1 
C957: x37+x40 <=1 
C958: x37+x41-y37_41 <=1 
C959: x37+x42 <=1 
C960: x37+x45 <=1 
C961: x37+x46-y37_46 <=1 
C962: x37+x47-y37_47 <=1 
C963: x37+x49 <=1 
C964: x37+x52 <=1 
C965: x37+x53-y37_53 <=1 
C966: x37+x54 <=1 
C967: x37+x55 <=1 
C968: x37+x56 <=1 
C969: x37+x58 <=1 
C970: x37+x59 <=1 
C971: x37+x62-y37_62 <=1 
C972: x38+x41-y38_41 <=1 
C973: x38+x44 <=1 
C974: x38+x46-y38_46 <=1 
C975: x38+x47 <=1 
C976: x38+x50 <=1 
C977: x38+x51-y38_51 <=1 
C978: x38+x52 <=1 
C979: x38+x57-y38_57 <=1 
C980: x38+x58-y38_58 <=1 
C981: x38+x59 <=1 
C982: x38+x60 <=1 
C983: x38+x61-y38_61 <=1 
C984: x38+x63-y38_63 <=1 
C985: x39+x43 <=1 
C986: x39+x44-y39_44 <=1 
C987: x39+x46 <=1 
C988: x39+x47-y39_47 <=1 
C989: x39+x48-y39_48 <=1 
C990: x39+x49 <=1 
C991: x39+x51-y39_51 <=1 
C992: x39+x54-y39_54 <=1 
C993: x39+x55 <=1 
C994: x39+x56-y39_56 <=1 
C995: x39+x58 <=1 
C996: x39+x59 <=1 
C997: x39+x60-y39_60 <=1 
C998: x39+x62-y39_62 <=1 
C999: x39+x63 <=1 
C1000: x40+x41 <=1 
C1001: x40+x42-y40_42 <=1 
C1002: x40+x43-y40_43 <=1 
C1003: x40+x44 <=1 
C1004: x40+x45 <=1 
C1005: x40+x46 <=1 
C1006: x40+x47-y40_47 <=1 
C1007: x40+x48-y40_48 <=1 
C1008: x40+x50-y40_50 <=1 
C1009: x40+x51-y40_51 <=1 
C1010: x40+x52-y40_52 <=1 
C1011: x40+x53 <=1 
C1012: x40+x57 <=1 
C1013: x40+x60 <=1 
C1014: x40+x61 <=1 
C1015: x40+x62 <=1 
C1016: x40+x63 <=1 
C1017: x41+x42-y41_42 <=1 
C1018: x41+x43 <=1 
C1019: x41+x45-y41_45 <=1 
C1020: x41+x46 <=1 
C1021: x41+x47 <=1 
C1022: x41+x48-y41_48 <=1 
C1023: x41+x50 <=1 
C1024: x41+x51 <=1 
C1025: x41+x53-y41_53 <=1 
C1026: x41+x54-y41_54 <=1 
C1027: x41+x55-y41_55 <=1 
C1028: x41+x56-y41_56 <=1 
C1029: x41+x58 <=1 
C1030: x41+x59 <=1 
C1031: x41+x61-y41_61 <=1 
C1032: x41+x63 <=1 
C1033: x42+x43 <=1 
C1034: x42+x44 <=1 
C1035: x42+x45-y42_45 <=1 
C1036: x42+x46-y42_46 <=1 
C1037: x42+x47 <=1 
C1038: x42+x48 <=1 
C1039: x42+x51 <=1 
C1040: x42+x53 <=1 
C1041: x42+x54 <=1 
C1042: x42+x55 <=1 
C1043: x42+x57-y42_57 <=1 
C1044: x42+x58-y42_58 <=1 
C1045: x42+x60-y42_60 <=1 
C1046: x42+x61 <=1 
C1047: x42+x62-y42_62 <=1 
C1048: x42+x63 <=1 
C1049: x43+x45 <=1 
C1050: x43+x46-y43_46 <=1 
C1051: x43+x48-y43_48 <=1 
C1052: x43+x51 <=1 
C1053: x43+x55-y43_55 <=1 
C1054: x43+x56 <=1 
C1055: x43+x61-y43_61 <=1 
C1056: x43+x62 <=1 
C1057: x43+x63-y43_63 <=1 
C1058: x44+x47-y44_47 <=1 
C1059: x44+x49-y44_49 <=1 
C1060: x44+x50 <=1 
C1061: x44+x51-y44_51 <=1 
C1062: x44+x52 <=1 
C1063: x44+x53 <=1 
C1064: x44+x54-y44_54 <=1 
C1065: x44+x55 <=1 
C1066: x44+x56 <=1 
C1067: x44+x57 <=1 
C1068: x44+x59-y44_59 <=1 
C1069: x44+x60 <=1 
C1070: x44+x63-y44_63 <=1 
C1071: x45+x51 <=1 
C1072: x45+x52-y45_52 <=1 
C1073: x45+x54 <=1 
C1074: x45+x55-y45_55 <=1 
C1075: x45+x57-y45_57 <=1 
C1076: x45+x58-y45_58 <=1 
C1077: x45+x61-y45_61 <=1 
C1078: x46+x47-y46_47 <=1 
C1079: x46+x50 <=1 
C1080: x46+x51-y46_51 <=1 
C1081: x46+x54 <=1 
C1082: x46+x56-y46_56 <=1 
C1083: x46+x57 <=1 
C1084: x46+x58-y46_58 <=1 
C1085: x46+x59 <=1 
C1086: x46+x60 <=1 
C1087: x46+x61-y46_61 <=1 
C1088: x46+x62-y46_62 <=1 
C1089: x47+x48-y47_48 <=1 
C1090: x47+x49 <=1 
C1091: x47+x52-y47_52 <=1 
C1092: x47+x53 <=1 
C1093: x47+x54 <=1 
C1094: x47+x55-y47_55 <=1 
C1095: x47+x56 <=1 
C1096: x47+x57-y47_57 <=1 
C1097: x47+x60-y47_60 <=1 
C1098: x47+x61-y47_61 <=1 
C1099: x48+x49-y48_49 <=1 
C1100: x48+x52-y48_52 <=1 
C1101: x48+x53-y48_53 <=1 
C1102: x48+x55-y48_55 <=1 
C1103: x48+x56 <=1 
C1104: x48+x58 <=1 
C1105: x48+x63 <=1 
C1106: x49+x50 <=1 
C1107: x49+x51 <=1 
C1108: x49+x52 <=1 
C1109: x49+x53 <=1 
C1110: x49+x54 <=1 
C1111: x49+x55 <=1 
C1112: x49+x57-y49_57 <=1 
C1113: x49+x58 <=1 
C1114: x49+x59 <=1 
C1115: x49+x60-y49_60 <=1 
C1116: x49+x61 <=1 
C1117: x49+x62 <=1 
C1118: x49+x63 <=1 
C1119: x50+x52 <=1 
C1120: x50+x54 <=1 
C1121: x50+x56 <=1 
C1122: x50+x57-y50_57 <=1 
C1123: x50+x58 <=1 
C1124: x50+x59-y50_59 <=1 
C1125: x50+x62-y50_62 <=1 
C1126: x51+x52-y51_52 <=1 
C1127: x51+x53 <=1 
C1128: x51+x55 <=1 
C1129: x51+x59-y51_59 <=1 
C1130: x51+x60-y51_60 <=1 
C1131: x51+x62-y51_62 <=1 
C1132: x52+x54-y52_54 <=1 
C1133: x52+x55 <=1 
C1134: x52+x60 <=1 
C1135: x52+x63 <=1 
C1136: x53+x54-y53_54 <=1 
C1137: x53+x57-y53_57 <=1 
C1138: x53+x59 <=1 
C1139: x53+x60-y53_60 <=1 
C1140: x53+x61-y53_61 <=1 
C1141: x53+x63 <=1 
C1142: x54+x55-y54_55 <=1 
C1143: x54+x56-y54_56 <=1 
C1144: x54+x57 <=1 
C1145: x54+x58-y54_58 <=1 
C1146: x54+x60-y54_60 <=1 
C1147: x54+x62 <=1 
C1148: x54+x63 <=1 
C1149: x55+x56 <=1 
C1150: x55+x57-y55_57 <=1 
C1151: x55+x58-y55_58 <=1 
C1152: x55+x59-y55_59 <=1 
C1153: x55+x60 <=1 
C1154: x55+x62-y55_62 <=1 
C1155: x55+x63 <=1 
C1156: x56+x58-y56_58 <=1 
C1157: x56+x60 <=1 
C1158: x56+x62 <=1 
C1159: x56+x63-y56_63 <=1 
C1160: x57+x58-y57_58 <=1 
C1161: x57+x59 <=1 
C1162: x57+x60-y57_60 <=1 
C1163: x57+x62-y57_62 <=1 
C1164: x57+x63-y57_63 <=1 
C1165: x58+x59-y58_59 <=1 
C1166: x58+x63-y58_63 <=1 
C1167: x59+x60 <=1 
C1168: x59+x62-y59_62 <=1 
C1169: x60+x63-y60_63 <=1 
C1170: x61+x62-y61_62 <=1 
C1171: x61+x63-y61_63 <=1 
C1172: x62+x63-y62_63 <=1 

binary
x0
x1
x2
x3
x4
x5
x6
x7
x8
x9
x10
x11
x12
x13
x14
x15
x16
x17
x18
x19
x20
x21
x22
x23
x24
x25
x26
x27
x28
x29
x30
x31
x32
x33
x34
x35
x36
x37
x38
x39
x40
x41
x42
x43
x44
x45
x46
x47
x48
x49
x50
x51
x52
x53
x54
x55
x56
x57
x58
x59
x60
x61
x62
x63
