problem_generation/data/GISP/train/er_n=64_m=1172_p=0.60_SET2_setparam=100.00_alpha=0.50_278.sol
objective value:                                 1181
x6                                                  1 	(obj:100)
x7                                                  1 	(obj:100)
x23                                                 1 	(obj:100)
x26                                                 1 	(obj:100)
x27                                                 1 	(obj:100)
x29                                                 1 	(obj:100)
x35                                                 1 	(obj:100)
x47                                                 1 	(obj:100)
x51                                                 1 	(obj:100)
x52                                                 1 	(obj:100)
x58                                                 1 	(obj:100)
x62                                                 1 	(obj:100)
y47_52                                              1 	(obj:-1)
y6_51                                               1 	(obj:-1)
y23_62                                              1 	(obj:-1)
y26_62                                              1 	(obj:-1)
y23_29                                              1 	(obj:-1)
y7_62                                               1 	(obj:-1)
y27_58                                              1 	(obj:-1)
y26_52                                              1 	(obj:-1)
y26_47                                              1 	(obj:-1)
y29_58                                              1 	(obj:-1)
y7_29                                               1 	(obj:-1)
y7_47                                               1 	(obj:-1)
y51_62                                              1 	(obj:-1)
y51_52                                              1 	(obj:-1)
y6_26                                               1 	(obj:-1)
y6_35                                               1 	(obj:-1)
y23_27                                              1 	(obj:-1)
y7_51                                               1 	(obj:-1)
y27_51                                              1 	(obj:-1)
